0000000000000000
0000000000000000
0111111111111110
1111111111111100
0000000000011000
0000000000011000
0000000000011000
0000000000011000
0000000000011000
0000000000011000
0000000000011000
0000000000001000
0000000000000000
0000000000000000
0000000000000000
0000000000000000
